WARNING: for repeatability, setting FPU to use double precision
============================[ Problem Statistics ]=============================
|                                                                             |
|  Number of variables:      10735052                                         |
|  Number of clauses:        43043255                                         |
|  Parse time:                   9.84 s                                       |
|                                                                             |
c ============================[ Search Statistics ]==============================
c | Conflicts |          ORIGINAL         |          LEARNT          | Progress |
c |           |    Vars  Clauses Literals |    Limit  Clauses Lit/Cl |          |
c ===============================================================================
We had 5896 decisions of which only 0 were on extended
We had 8660832 decisions of which only 0 were on extended
c Switched to VSIDS.
c Switched to LRB.
c Switched to VSIDS.
c Switched to LRB.
c Switched to VSIDS.
c Switched to LRB.
c Switched to VSIDS.
c Switched to LRB.
c Switched to VSIDS.
c Switched to LRB.
c Switched to VSIDS.
c Switched to LRB.
c Switched to VSIDS.
c Switched to LRB.
We had 15737417 decisions of which only 3.17714e-05 were on extended
c Switched to VSIDS.
c Switched to LRB.
c ===============================================================================
restarts                  : 119
conflicts                 : 23884          (7 /sec)
decisions                 : 16523305       (0.00 % random) (5082 /sec)
propagations              : 8372766157     (2575363 /sec)
conflict literals         : 2203136        (12.10 % deleted)

conflicts w/ DIP found    : 17812          (74.58 % of conflicts)
conflicts w/ dangerous DIP: 0              (0.00 % of conflicts)
conflicts w/ DIP-learning : 25             (0.10 % of conflicts)
decisions on ext vars     : 5              (0.00 % of decisions)
total ext vars            : 6           
tried delete ext vars     : 5           
deleted ext vars          : 3           
max ext vars              : 6           

Memory used               : 7431.00 MB
CPU time                  : 3251.1 s
DIP computation time      : 0.459224 s (0.01 % of total time)
ER_sel time               : 0.03107 s
ER_add time               : 0.000197 s
ER_delC time              : 0 s
ER_delV time              : 0.602294 s
ER_sub time               : 0.122874 s
ER_stat time              : 0 s

INDETERMINATE
